n = 4;
pattern_length = 4;
num_patterns = 24;
num_classes = 3;
pattern = [|
1, 2, 3, 4
| 1, 2, 4, 3
| 1, 3, 2, 4
| 1, 3, 4, 2
| 1, 4, 2, 3
| 1, 4, 3, 2
| 2, 1, 3, 4
| 2, 1, 4, 3
| 2, 3, 1, 4
| 2, 3, 4, 1
| 2, 4, 1, 3
| 2, 4, 3, 1
| 3, 1, 2, 4
| 3, 1, 4, 2
| 3, 2, 1, 4
| 3, 2, 4, 1
| 3, 4, 1, 2
| 3, 4, 2, 1
| 4, 1, 2, 3
| 4, 1, 3, 2
| 4, 2, 1, 3
| 4, 2, 3, 1
| 4, 3, 1, 2
| 4, 3, 2, 1
|];
class = [{1, 6, 8, 10, 15, 17, 19, 24}, {2, 4, 7, 12, 13, 18, 21, 23}, {3, 5, 9, 11, 14, 16, 20, 22}];
